Bruniera/ragionamento automatico/progetto/benchmark/asp/mid27.lp
start(0).
limit(6).
n(14).
strada(0,3,2).
strada(0,5,18).
strada(0,6,15).
strada(0,9,7).
strada(0,11,20).
strada(0,12,13).
strada(1,4,4).
strada(1,5,11).
strada(1,7,7).
strada(1,8,10).
strada(1,9,1).
strada(1,10,16).
strada(1,13,2).
strada(2,3,12).
strada(2,5,4).
strada(2,7,7).
strada(2,12,6).
strada(2,13,13).
strada(3,1,9).
strada(3,4,11).
strada(3,7,14).
strada(3,11,4).
strada(3,12,11).
strada(3,13,9).
strada(4,0,7).
strada(4,1,15).
strada(4,5,3).
strada(4,10,4).
strada(4,11,17).
strada(5,1,5).
strada(5,4,6).
strada(5,6,11).
strada(5,7,5).
strada(5,9,3).
strada(5,11,1).
strada(6,1,8).
strada(6,3,16).
strada(6,4,2).
strada(6,5,18).
strada(6,8,11).
strada(6,9,7).
strada(6,12,13).
strada(6,13,12).
strada(7,1,8).
strada(7,3,18).
strada(7,4,8).
strada(7,6,17).
strada(7,8,17).
strada(7,9,6).
strada(7,10,6).
strada(8,1,6).
strada(8,4,7).
strada(8,9,13).
strada(8,11,7).
strada(9,2,5).
strada(9,3,7).
strada(9,4,11).
strada(9,7,1).
strada(9,8,10).
strada(9,11,10).
strada(9,13,14).
strada(10,1,8).
strada(10,2,11).
strada(10,9,16).
strada(10,11,6).
strada(10,13,17).
strada(11,2,0).
strada(11,4,1).
strada(11,5,1).
strada(11,8,2).
strada(11,13,5).
strada(12,1,14).
strada(12,2,19).
strada(12,5,0).
strada(12,6,3).
strada(12,7,4).
strada(13,0,18).
strada(13,1,8).
strada(13,3,3).
strada(13,4,5).
strada(13,8,13).
strada(13,9,1).
strada(13,11,9).
