Bruniera/ragionamento automatico/progetto/benchmark/minizinc/mid27.dzn
start = 1;
limit = 6;
n = 14;
m=[|-1,-1,-1,2,-1,18,15,-1,-1,7,-1,20,13,-1,
|-1,-1,-1,-1,4,11,-1,7,10,1,16,-1,-1,2,
|-1,-1,-1,12,-1,4,-1,7,-1,-1,-1,-1,6,13,
|-1,9,-1,-1,11,-1,-1,14,-1,-1,-1,4,11,9,
|7,15,-1,-1,-1,3,-1,-1,-1,-1,4,17,-1,-1,
|-1,5,-1,-1,6,-1,11,5,-1,3,-1,1,-1,-1,
|-1,8,-1,16,2,18,-1,-1,11,7,-1,-1,13,12,
|-1,8,-1,18,8,-1,17,-1,17,6,6,-1,-1,-1,
|-1,6,-1,-1,7,-1,-1,-1,-1,13,-1,7,-1,-1,
|-1,-1,5,7,11,-1,-1,1,10,-1,-1,10,-1,14,
|-1,8,11,-1,-1,-1,-1,-1,-1,16,-1,6,-1,17,
|-1,-1,0,-1,1,1,-1,-1,2,-1,-1,-1,-1,5,
|-1,14,19,-1,-1,0,3,4,-1,-1,-1,-1,-1,-1,
|18,8,-1,3,5,-1,-1,-1,13,1,-1,9,-1,-1,
|]
;